9
1 9
2 6
3 10
4 6
5 2
6 6
7 1
8 2
24
0 1 1
1 0 1
0 2 52
2 0 52
0 3 79
3 0 79
0 4 82
4 0 82
0 5 10
5 0 10
0 6 88
6 0 88
0 7 65
7 0 65
0 8 87
8 0 87
1 2 61
1 5 12
1 8 94
2 4 16
4 7 64
4 8 73
5 7 71
5 8 3
